data/solutions/planning/degenerate/moderate/weighting/degenerate_moderate_instance48_gurobi.sol
Elapsed time: 101.43
Nodes explored: 624846
Nodes left: 241613
Relative gap: 0.01
Upper bound: 31616341908.0
Lower bound: 31613233917
C[0]=501901938.0
C[1]=501797196.0
C[2]=501794714.0
C[3]=501771474.0
C[4]=501762290.0
C[5]=501756568.0
y[0]=1
y[1]=4
y[2]=2
y[3]=2
y[4]=5
y[5]=3
y[6]=4
y[7]=3
y[8]=0
y[9]=4
y[10]=3
y[11]=1
y[12]=2
y[13]=4
y[14]=5
y[15]=4
y[16]=5
y[17]=3
y[18]=4
y[19]=3
y[20]=4
y[21]=0
y[22]=1
y[23]=2
y[24]=2
y[25]=4
y[26]=2
y[27]=1
y[28]=5
y[29]=3
y[30]=3
y[31]=3
y[32]=1
y[33]=4
y[34]=1
y[35]=1
y[36]=4
y[37]=0
y[38]=5
y[39]=2
y[40]=0
y[41]=0
y[42]=3
y[43]=4
y[44]=0
y[45]=2
y[46]=2
y[47]=0
y[48]=5
y[49]=2
